Au  H 
 1.0000000000000000
    30.0000000000000000    0.0000000000000000    0.0000000000000000
     0.0000000000000000   30.0000000000000000    0.0000000000000000
     0.0000000000000000    0.0000000000000000   30.0000000000000000
  Au   H
  13   5
Cartesian
 -0.2870945900000000 -1.0269970600000000 -1.4356727600000001
 -0.6635365600000001  1.4399477800000000  0.1239171100000000
  1.8055356600000001  0.1180855100000000  0.4652057100000000
 -0.5354441100000000 -0.9738036000000000 -4.1574785399999996
 -1.5558208800000000  1.1947126200000000 -2.4106829400000001
  1.9106961099999999 -1.7571020500000001 -3.6066282200000002
  3.3963582500000000 -1.0130667400000000 -1.4387118000000001
  1.9036478999999999 -2.9293785799999998  1.3970318300000000
  1.8288026300000000 -1.1787314499999999  3.5001251299999998
 -0.6805583200000000 -3.2497237900000000  0.3397226100000000
 -1.4338701800000000 -0.8674697400000000  1.3423487300000001
  0.3003565400000000  0.9127485300000000  2.6252198000000000
  1.4825060999999999 -3.2451825200000002 -1.2487567399999999
  3.5824792300000001 -1.8595435199999999 -2.9766100700000000
  2.5261326099999999 -2.7229861999999998  3.0210677300000000
  3.4981035899999999 -0.0854009700000000  0.0435222400000000
 -2.0585112200000002 -2.4841544899999999  1.2686375400000001
  1.2221172499999999  0.3030462800000000  4.1531426400000004
