Au  H 
 1.0000000000000000
    30.0000000000000000    0.0000000000000000    0.0000000000000000
     0.0000000000000000   30.0000000000000000    0.0000000000000000
     0.0000000000000000    0.0000000000000000   30.0000000000000000
  Au   H
  18  14
Cartesian
 15.2950418799999994 18.4627312799999999 16.7200195600000008
 17.5775695200000008 17.2655790300000014 14.7397341500000003
 19.1517535700000003 19.8785878199999999 15.1582090500000000
 15.1876175300000007 20.5706505899999996 12.5200502500000006
 15.0280645400000008 15.9126027000000008 15.5552180000000000
 15.1559277600000009 18.0661454500000005 13.6359522700000007
 17.5330717400000005 18.9842686100000009 12.5533162399999991
 18.6887873900000017 17.6531343700000001 17.2188004200000009
 13.4554521099999995 19.8393443500000011 14.9432928100000009
 20.1663179100000001 18.0635192800000013 13.3018529500000007
 15.1268843099999994 21.1942048400000012 16.7599745099999993
 17.4441646400000003 22.0428856800000013 15.6133979699999994
 18.1260190700000017 21.6276800300000005 12.9726981400000003
 14.7914980400000005 23.2182174000000003 12.9605322899999997
 17.5133901300000012 20.0849258500000012 17.5877360500000002
 16.2479574100000015 15.0697755900000008 13.1950898300000006
 18.6032146099999984 16.0592532900000009 12.1666302599999998
 15.0209771799999992 23.7540226700000012 15.6179947499999994
 14.6143182300000003 22.0305568399999991 11.7083080899999992
 14.7988404700000000 16.8062228800000000 17.0294060800000011
 13.4009708300000003 18.5983303699999993 13.7023893599999997
 18.5814921400000017 16.4034770499999993 16.0192239200000017
 20.6497475299999991 19.3071074899999999 14.4268656100000001
 13.3733609999999992 20.9850200499999993 16.2495884500000010
 18.1777785499999993 20.4982906000000007 11.6526052000000000
 18.2454981399999987 22.8381582499999993 14.2548800300000007
 18.7589892200000001 18.8709553600000000 18.4266739599999987
 14.9479954300000006 14.6898079900000003 14.2921367000000004
 20.1518991400000012 16.8616737800000003 12.0231364299999992
 14.8652648999999997 24.5927207099999983 14.0296869399999995
 15.1123668099999993 23.1498295100000000 17.1623561100000011
 17.3467691700000017 14.8723153999999997 11.8412403299999998
