Au  H 
 1.0000000000000000
    30.0000000000000000    0.0000000000000000    0.0000000000000000
     0.0000000000000000   30.0000000000000000    0.0000000000000000
     0.0000000000000000    0.0000000000000000   30.0000000000000000
  Au   H
  13   5
Cartesian
  0.7672834400000000 -1.0842515300000000 -0.0228919800000000
 -1.8528794300000000  0.2279847200000000 -1.0264864400000000
  2.5112190200000000  1.1125616199999999  0.0675160000000000
  0.5901371100000000  1.1287533300000001 -2.0092694400000002
 -0.4595096900000000 -1.3958748500000000 -2.8934063900000000
  2.3492951099999999 -1.1711419599999999 -2.3472423800000000
  2.1640945899999999 -3.7655824199999999  0.6556217700000000
 -0.4648618300000000 -3.4092893000000002  1.2663189100000001
  3.5605733700000002 -1.4594427200000000  0.2907818400000000
 -1.9917546100000001 -2.5270175600000000 -0.8745370099999999
 -1.6794450700000001 -0.9744618700000000  1.5240108900000000
 -0.1811099600000000  1.3872594100000000  1.0032017700000000
  0.5560221600000000 -3.5520016600000002 -1.5357604400000000
  5.0143349400000004 -1.9883086100000000  0.6142409700000000
  3.5071415699999999  2.3378759400000000  0.2361541900000000
  0.0956367200000000  2.2234161600000002 -3.0400677599999999
  3.0990851899999998 -1.2956090199999999 -3.7399428499999998
 -0.8908626100000000  2.5873303100000000  1.7547583600000001
