Au  H 
 1.0000000000000000
    30.0000000000000000    0.0000000000000000    0.0000000000000000
     0.0000000000000000   30.0000000000000000    0.0000000000000000
     0.0000000000000000    0.0000000000000000   30.0000000000000000
  Au   H
  13   5
Cartesian
 -1.1716899800000000 -1.6250392700000000  0.7057270000000000
 -2.1170694200000000  0.2969739200000000 -1.2260882700000000
  1.3236381500000001 -1.0579538300000000 -0.4291336000000000
  0.2330144000000000  0.7145992100000000 -2.4208030300000001
 -0.9379352900000000 -1.8918559200000000 -2.2770735100000001
  2.9525791699999999  0.1811069300000000 -2.6064230899999998
  3.5805152699999998 -2.3459141600000000 -1.7021564000000000
  2.6912254000000000 -3.9335958099999999  0.3052401200000000
  1.2173780800000000 -2.4334194000000000  2.0205634300000002
 -3.7911459199999999 -0.7261764100000000  0.7833210100000000
 -2.0214953800000002  1.1372279199999999  1.5843166300000000
  0.5211869600000000  0.2475279100000000  1.9153627200000001
  1.1580146000000000 -3.6268188600000002 -1.9279711700000000
  4.3309526700000003 -0.8790709200000000 -2.4456938899999998
  2.2201835600000002 -3.9226212600000001  2.0771286299999998
  1.7859336200000000  1.4269473399999999 -2.9286623600000001
 -0.4159664400000000 -3.5039682700000001 -2.7380961199999998
 -0.5913194700000000  1.8394508599999999  2.1548419000000001
